(set-logic QF_UF)
(declare-fun A1 () Bool)
(declare-fun A2 () Bool)
(declare-fun A3 () Bool)
(declare-fun A4 () Bool)
(declare-fun A5 () Bool)
(declare-fun A6 () Bool)
(declare-fun A7 () Bool)
(declare-fun A8 () Bool)
(declare-fun A9 () Bool)
(declare-fun A10 () Bool)
(declare-fun A11 () Bool)
(declare-fun A12 () Bool)
(declare-fun A13 () Bool)
(declare-fun A14 () Bool)
(declare-fun A15 () Bool)
(declare-fun A16 () Bool)
(declare-fun A17 () Bool)
(declare-fun A18 () Bool)
(declare-fun A19 () Bool)
(declare-fun A20 () Bool)
(declare-fun A21 () Bool)
(declare-fun A22 () Bool)
(declare-fun A23 () Bool)
(declare-fun A24 () Bool)
(assert (let ((.def_0 (not A22))) (let ((.def_1 (and .def_0 A2))) (let ((.def_2 (not A23))) (let ((.def_3 (or .def_2 A15))) (let ((.def_4 (not .def_3))) (let ((.def_5 (or .def_4 .def_1))) (let ((.def_6 (not A6))) (let ((.def_7 (or .def_6 A21))) (let ((.def_8 (not A24))) (let ((.def_9 (or .def_6 .def_8))) (let ((.def_10 (or .def_9 .def_7))) (let ((.def_11 (not .def_10))) (let ((.def_12 (= .def_11 .def_5))) (let ((.def_13 (not .def_12))) (let ((.def_14 (and A20 A1))) (let ((.def_15 (and A10 A16))) (let ((.def_16 (and .def_15 .def_14))) (let ((.def_17 (not .def_16))) (let ((.def_18 (not A8))) (let ((.def_19 (and .def_8 .def_18))) (let ((.def_20 (not .def_19))) (let ((.def_21 (and A16 A13))) (let ((.def_22 (or .def_21 .def_20))) (let ((.def_23 (not .def_22))) (let ((.def_24 (= .def_23 .def_17))) (let ((.def_25 (and .def_24 .def_13))) (let ((.def_26 (not A9))) (let ((.def_27 (not A15))) (let ((.def_28 (and .def_27 .def_26))) (let ((.def_29 (not .def_28))) (let ((.def_30 (not A2))) (let ((.def_31 (and .def_6 .def_30))) (let ((.def_32 (and .def_31 .def_29))) (let ((.def_33 (not .def_32))) (let ((.def_34 (not A3))) (let ((.def_35 (and .def_34 A21))) (let ((.def_36 (not A10))) (let ((.def_37 (and A11 .def_36))) (let ((.def_38 (not .def_37))) (let ((.def_39 (or .def_38 .def_35))) (let ((.def_40 (or .def_39 .def_33))) (let ((.def_41 (not A16))) (let ((.def_42 (and A15 .def_41))) (let ((.def_43 (not .def_42))) (let ((.def_44 (not A1))) (let ((.def_45 (or A7 .def_44))) (let ((.def_46 (or .def_45 .def_43))) (let ((.def_47 (not A12))) (let ((.def_48 (or A13 .def_47))) (let ((.def_49 (not .def_48))) (let ((.def_50 (and A12 A8))) (let ((.def_51 (not .def_50))) (let ((.def_52 (and .def_51 .def_49))) (let ((.def_53 (not .def_52))) (let ((.def_54 (or .def_53 .def_46))) (let ((.def_55 (not .def_54))) (let ((.def_56 (and .def_55 .def_40))) (let ((.def_57 (and .def_56 .def_25))) (let ((.def_58 (not .def_57))) (let ((.def_59 (not A17))) (let ((.def_60 (and .def_59 .def_41))) (let ((.def_61 (= A3 A23))) (let ((.def_62 (not .def_61))) (let ((.def_63 (or .def_62 .def_60))) (let ((.def_64 (not A14))) (let ((.def_65 (and .def_64 A3))) (let ((.def_66 (not A4))) (let ((.def_67 (= .def_66 A14))) (let ((.def_68 (or .def_67 .def_65))) (let ((.def_69 (not .def_68))) (let ((.def_70 (and .def_69 .def_63))) (let ((.def_71 (not A21))) (let ((.def_72 (and .def_71 A22))) (let ((.def_73 (not A18))) (let ((.def_74 (and .def_34 .def_73))) (let ((.def_75 (or .def_74 .def_72))) (let ((.def_76 (not .def_75))) (let ((.def_77 (not A20))) (let ((.def_78 (not A13))) (let ((.def_79 (or .def_78 .def_77))) (let ((.def_80 (not A19))) (let ((.def_81 (or A5 .def_80))) (let ((.def_82 (and .def_81 .def_79))) (let ((.def_83 (not .def_82))) (let ((.def_84 (and .def_83 .def_76))) (let ((.def_85 (not .def_84))) (let ((.def_86 (= .def_85 .def_70))) (let ((.def_87 (not .def_86))) (let ((.def_88 (and A10 A10))) (let ((.def_89 (not .def_88))) (let ((.def_90 (not A11))) (let ((.def_91 (or .def_90 A11))) (let ((.def_92 (= .def_91 .def_89))) (let ((.def_93 (or A3 .def_66))) (let ((.def_94 (and .def_80 A1))) (let ((.def_95 (and .def_94 .def_93))) (let ((.def_96 (or .def_95 .def_92))) (let ((.def_97 (not .def_96))) (let ((.def_98 (or A13 .def_66))) (let ((.def_99 (not .def_98))) (let ((.def_100 (or .def_6 .def_18))) (let ((.def_101 (= .def_100 .def_99))) (let ((.def_102 (or .def_78 A16))) (let ((.def_103 (and .def_8 .def_41))) (let ((.def_104 (not .def_103))) (let ((.def_105 (and .def_104 .def_102))) (let ((.def_106 (or .def_105 .def_101))) (let ((.def_107 (= .def_106 .def_97))) (let ((.def_108 (and .def_107 .def_87))) (let ((.def_109 (and .def_108 .def_58))) .def_109)))))))))))))))))))))))))))))))))))))))))))))))))))))))))))))))))))))))))))))))))))))))))))))))))))))))))))))))
(check-sat)
